(set-logic QF_UF)
(declare-fun A0 () Bool)
(declare-fun A1 () Bool)
(declare-fun A2 () Bool)
(declare-fun A3 () Bool)
(declare-fun A4 () Bool)
(declare-fun A5 () Bool)
(declare-fun A6 () Bool)
(declare-fun A7 () Bool)
(declare-fun A8 () Bool)
(declare-fun A9 () Bool)
(declare-fun A10 () Bool)
(declare-fun A11 () Bool)
(declare-fun A12 () Bool)
(declare-fun A13 () Bool)
(declare-fun A15 () Bool)
(declare-fun A16 () Bool)
(declare-fun A17 () Bool)
(declare-fun A18 () Bool)
(declare-fun A19 () Bool)
(declare-fun A20 () Bool)
(declare-fun A21 () Bool)
(declare-fun A22 () Bool)
(declare-fun A23 () Bool)
(assert (let ((.def_0 (and A5 A11))) (let ((.def_1 (not .def_0))) (let ((.def_2 (not A4))) (let ((.def_3 (not A13))) (let ((.def_4 (and .def_3 .def_2))) (let ((.def_5 (and .def_4 .def_1))) (let ((.def_6 (= .def_2 A16))) (let ((.def_7 (not A22))) (let ((.def_8 (or A9 .def_7))) (let ((.def_9 (not .def_8))) (let ((.def_10 (or .def_9 .def_6))) (let ((.def_11 (not .def_10))) (let ((.def_12 (and .def_11 .def_5))) (let ((.def_13 (not A23))) (let ((.def_14 (and .def_13 A23))) (let ((.def_15 (not .def_14))) (let ((.def_16 (not A2))) (let ((.def_17 (not A3))) (let ((.def_18 (= .def_17 .def_16))) (let ((.def_19 (not .def_18))) (let ((.def_20 (or .def_19 .def_15))) (let ((.def_21 (not .def_20))) (let ((.def_22 (or A12 A16))) (let ((.def_23 (not A18))) (let ((.def_24 (or .def_23 .def_17))) (let ((.def_25 (or .def_24 .def_22))) (let ((.def_26 (and .def_25 .def_21))) (let ((.def_27 (or .def_26 .def_12))) (let ((.def_28 (not .def_27))) (let ((.def_29 (not A8))) (let ((.def_30 (and .def_29 A20))) (let ((.def_31 (or A22 A9))) (let ((.def_32 (and .def_31 .def_30))) (let ((.def_33 (not .def_32))) (let ((.def_34 (and A17 A0))) (let ((.def_35 (not .def_34))) (let ((.def_36 (not A9))) (let ((.def_37 (or .def_36 A23))) (let ((.def_38 (or .def_37 .def_35))) (let ((.def_39 (not .def_38))) (let ((.def_40 (and .def_39 .def_33))) (let ((.def_41 (not .def_40))) (let ((.def_42 (not A0))) (let ((.def_43 (and .def_42 A4))) (let ((.def_44 (and A2 A6))) (let ((.def_45 (not .def_44))) (let ((.def_46 (or .def_45 .def_43))) (let ((.def_47 (not .def_46))) (let ((.def_48 (not A17))) (let ((.def_49 (= .def_36 .def_48))) (let ((.def_50 (not A1))) (let ((.def_51 (not A19))) (let ((.def_52 (or .def_51 .def_50))) (let ((.def_53 (= .def_52 .def_49))) (let ((.def_54 (or .def_53 .def_47))) (let ((.def_55 (not .def_54))) (let ((.def_56 (and .def_55 .def_41))) (let ((.def_57 (or .def_56 .def_28))) (let ((.def_58 (not A21))) (let ((.def_59 (or .def_58 .def_36))) (let ((.def_60 (not .def_59))) (let ((.def_61 (and A2 .def_23))) (let ((.def_62 (not .def_61))) (let ((.def_63 (or .def_62 .def_60))) (let ((.def_64 (not .def_63))) (let ((.def_65 (not A15))) (let ((.def_66 (or .def_65 A5))) (let ((.def_67 (not .def_66))) (let ((.def_68 (not A20))) (let ((.def_69 (or .def_68 .def_50))) (let ((.def_70 (not .def_69))) (let ((.def_71 (and .def_70 .def_67))) (let ((.def_72 (or .def_71 .def_64))) (let ((.def_73 (not .def_72))) (let ((.def_74 (not A7))) (let ((.def_75 (and A13 .def_74))) (let ((.def_76 (or A16 A22))) (let ((.def_77 (and .def_76 .def_75))) (let ((.def_78 (not .def_77))) (let ((.def_79 (or .def_7 A17))) (let ((.def_80 (not .def_79))) (let ((.def_81 (and A13 A18))) (let ((.def_82 (not .def_81))) (let ((.def_83 (and .def_82 .def_80))) (let ((.def_84 (and .def_83 .def_78))) (let ((.def_85 (not .def_84))) (let ((.def_86 (and .def_85 .def_73))) (let ((.def_87 (not .def_86))) (let ((.def_88 (and A8 A8))) (let ((.def_89 (not .def_88))) (let ((.def_90 (or .def_74 A20))) (let ((.def_91 (or .def_90 .def_89))) (let ((.def_92 (not .def_91))) (let ((.def_93 (or A10 .def_68))) (let ((.def_94 (or A6 A11))) (let ((.def_95 (and .def_94 .def_93))) (let ((.def_96 (not .def_95))) (let ((.def_97 (= .def_96 .def_92))) (let ((.def_98 (not .def_97))) (let ((.def_99 (and .def_29 A0))) (let ((.def_100 (not .def_99))) (let ((.def_101 (and A19 A16))) (let ((.def_102 (and .def_101 .def_100))) (let ((.def_103 (not A12))) (let ((.def_104 (or .def_103 A20))) (let ((.def_105 (or A3 .def_36))) (let ((.def_106 (not .def_105))) (let ((.def_107 (and .def_106 .def_104))) (let ((.def_108 (or .def_107 .def_102))) (let ((.def_109 (not .def_108))) (let ((.def_110 (and .def_109 .def_98))) (let ((.def_111 (not .def_110))) (let ((.def_112 (or .def_111 .def_87))) (let ((.def_113 (not .def_112))) (let ((.def_114 (and .def_113 .def_57))) (let ((.def_115 (not .def_114))) .def_115)))))))))))))))))))))))))))))))))))))))))))))))))))))))))))))))))))))))))))))))))))))))))))))))))))))))))))))))))))))
(check-sat)
